ciphers.morse_code_implementation/3_unsat.smt2
(set-logic ALL)
(declare-const message_VAR String)
(assert (not (< (str.len message_VAR) 0)))
(assert (not (str.contains message_VAR " ")))
(assert (< (str.len message_VAR) 0))
(check-sat)
(get-value (message_VAR))
